
List of user-set options:

                                    Name   Value                used
                           compl_inf_tol = 1                     yes
                         constr_viol_tol = 1                     yes
                            dual_inf_tol = 1000                  yes
                           linear_solver = ma97                  yes
                              ma86_small = 1e-30                  no
                                  ma86_u = 0.0001                 no
                              ma97_order = best                  yes
                              ma97_small = 1e-30                 yes
                            ma97_switch1 = at_start              yes
                            ma97_switch2 = od_hd_reuse           yes
                                  ma97_u = 1e-06                 yes
                               ma97_umax = 0.5                   yes
                                max_iter = 1000                  yes
                    max_refinement_steps = 20                    yes
                    min_refinement_steps = 5                     yes
                                 mu_init = 1e-06                 yes
           mu_superlinear_decrease_power = 1.25                  yes
                   nlp_scaling_min_value = 1e-08                 yes
                        option_file_name = Preset_Case:_239_NCP.opt  yes
                             output_file = ./tmp/Preset_Case:_239_NCP.output  yes
                      print_user_options = yes                   yes
        required_infeasibility_reduction = 1                      no
                                     tol = 1e-08                 yes
                   warm_start_bound_frac = 1e-20                 yes
                   warm_start_bound_push = 1e-20                 yes
                   warm_start_init_point = yes                   yes
              warm_start_mult_bound_push = 1e-20                 yes
                warm_start_mult_init_max = 1e+40                 yes
             warm_start_slack_bound_frac = 1e-20                 yes
             warm_start_slack_bound_push = 1e-20                 yes

******************************************************************************
This program contains Ipopt, a library for large-scale nonlinear optimization.
 Ipopt is released as open source code under the Eclipse Public License (EPL).
         For more information visit http://projects.coin-or.org/Ipopt
******************************************************************************

This is Ipopt version 3.12.10, running with linear solver ma97.

Number of nonzeros in equality constraint Jacobian...:   117167
Number of nonzeros in inequality constraint Jacobian.:      213
Number of nonzeros in Lagrangian Hessian.............:    47513

Total number of variables............................:    29977
                     variables with only lower bounds:    11312
                variables with lower and upper bounds:    15135
                     variables with only upper bounds:        0
Total number of equality constraints.................:    29864
Total number of inequality constraints...............:       25
        inequality constraints with only lower bounds:        4
   inequality constraints with lower and upper bounds:        0
        inequality constraints with only upper bounds:       21

iter    objective    inf_pr   inf_du lg(mu)  ||d||  lg(rg) alpha_du alpha_pr  ls
   0 -1.5677911e-01 1.16e-01 2.00e+00  -6.0 0.00e+00    -  0.00e+00 0.00e+00   0
In iteration 0, 9 Slacks too small, adjusting variable bounds
   1 -1.5677911e-01 1.16e-01 1.21e+03  -6.0 2.39e+12    -  1.21e-13 4.22e-21h  1
   2 -1.5677916e-01 1.16e-01 9.17e+03  -6.0 1.01e+02    -  5.02e-02 5.47e-06f  1
   3 -1.5753153e-01 1.05e-01 8.59e+03  -6.0 5.86e+01    -  6.22e-02 9.59e-02h  1
   4 -1.5786616e-01 1.02e-01 8.37e+03  -6.0 5.46e+01    -  2.52e-02 2.85e-02h  1
   5 -1.5900727e-01 9.24e-02 1.78e+04  -6.0 7.95e+01    -  5.80e-02 9.19e-02h  1
   6 -1.5958411e-01 8.70e-02 7.08e+03  -6.0 3.71e+01    -  1.03e-01 5.82e-02h  1
   7 -1.6174238e-01 1.80e-01 3.73e+04  -6.0 4.60e+01    -  7.58e-02 1.82e-01h  1
   8 -1.6351816e-01 5.48e-01 2.09e+04  -6.0 5.38e+01    -  1.14e-01 1.53e-01h  1
   9 -1.6383492e-01 5.76e-01 6.20e+04  -6.0 7.82e+01    -  1.05e-01 5.03e-02h  1
iter    objective    inf_pr   inf_du lg(mu)  ||d||  lg(rg) alpha_du alpha_pr  ls
  10 -1.6432878e-01 5.49e-01 5.99e+04  -6.0 6.54e+01    -  3.39e-02 3.04e-02h  1
  11 -1.6628560e-01 4.58e-01 4.93e+04  -6.0 7.46e+01    -  3.84e-02 1.09e-01f  1
  12 -1.6711662e-01 2.26e+00 4.23e+04  -6.0 1.10e+02    -  7.33e-02 1.43e-01h  1
  13 -1.6669313e-01 2.24e+00 4.21e+04  -6.0 5.61e+02    -  2.67e-02 4.85e-03h  1
  14 -1.6710154e-01 2.17e+00 4.08e+04  -6.0 1.42e+02    -  1.20e-01 3.17e-02f  1
  15 -1.6766096e-01 1.86e+00 3.47e+04  -6.0 1.12e+02    -  1.07e-01 1.47e-01h  1
  16 -1.6908919e-01 7.71e+00 4.38e+05  -6.0 1.12e+02    -  1.81e-01 4.35e-01H  1
  17r-1.6908919e-01 7.71e+00 1.00e+03   0.4 0.00e+00  -2.0 0.00e+00 4.42e-07R  2
  18r-1.6925305e-01 7.71e+00 1.00e+03   0.4 8.09e+05    -  6.23e-08 1.13e-07f  1
  19 -1.6923812e-01 7.68e+00 1.56e+03  -6.0 3.68e+01    -  2.40e-06 3.75e-03h  1
iter    objective    inf_pr   inf_du lg(mu)  ||d||  lg(rg) alpha_du alpha_pr  ls
  20 -1.6916309e-01 7.53e+00 1.53e+03  -6.0 3.77e+01    -  3.85e-03 1.89e-02h  1
  21 -1.6913193e-01 7.47e+00 1.52e+03  -6.0 4.05e+01    -  1.20e-01 8.05e-03h  1
  22 -1.6837545e-01 6.09e+00 1.51e+03  -6.0 4.13e+01    -  2.29e-02 1.97e-01h  1
  23 -1.6790202e-01 5.42e+00 1.79e+03  -6.0 2.95e+01    -  5.84e-03 1.12e-01h  2
  24 -1.6756493e-01 4.99e+00 1.87e+03  -6.0 2.61e+01    -  1.77e-01 8.06e-02h  2
  25 -1.6754050e-01 4.96e+00 1.86e+03  -6.0 2.67e+01    -  9.29e-02 5.98e-03h  6
  26 -1.6753222e-01 4.95e+00 1.86e+03  -6.0 2.72e+01    -  3.85e-01 2.00e-03h  8
  27 -1.6753117e-01 4.95e+00 1.85e+03  -6.0 2.89e+01    -  1.47e-01 2.39e-04h 12
  28 -1.6524123e-01 2.53e+00 1.73e+03  -6.0 2.95e+01    -  5.57e-01 5.13e-01h  1
  29 -1.6454887e-01 1.57e+00 2.80e+03  -6.0 9.15e+00    -  5.66e-04 3.82e-01h  1
iter    objective    inf_pr   inf_du lg(mu)  ||d||  lg(rg) alpha_du alpha_pr  ls
  30 -1.6319732e-01 1.40e-01 6.22e+02  -6.0 6.85e+00    -  8.70e-01 1.00e+00h  1
  31 -1.6395169e-01 3.60e-03 1.02e+01  -6.0 3.49e+00    -  9.31e-01 1.00e+00h  1
  32 -1.6674162e-01 5.37e-02 6.09e+00  -6.0 5.15e+01    -  7.84e-01 3.92e-01h  1
  33 -1.6851404e-01 6.18e-02 5.53e+00  -6.0 2.39e+02    -  2.86e-01 1.68e-01h  1
  34 -1.7230018e-01 4.19e-01 1.30e+01  -6.0 2.90e+02    -  2.15e-01 2.84e-01h  1
  35 -1.7653508e-01 4.84e-01 7.85e+00  -6.0 4.14e+02    -  3.88e-01 3.87e-01h  1
  36 -1.7838549e-01 9.32e-01 7.74e+00  -6.0 6.28e+02    -  2.01e-01 8.35e-02h  1
  37 -1.8537082e-01 2.88e+00 8.27e+00  -6.0 7.31e+02    -  3.62e-01 5.96e-01h  1
  38 -1.9045136e-01 6.68e+00 2.67e+01  -6.0 1.47e+03    -  9.37e-04 4.48e-01h  1
  39 -1.9039127e-01 5.71e+00 2.55e+01  -6.0 4.10e+00  -2.5 5.86e-02 1.45e-01h  1
iter    objective    inf_pr   inf_du lg(mu)  ||d||  lg(rg) alpha_du alpha_pr  ls
  40 -1.9019917e-01 4.28e+00 1.90e+03  -6.0 3.51e+00  -3.0 1.31e-05 2.51e-01h  1
  41 -1.9020879e-01 3.46e+00 1.54e+03  -6.0 2.63e+00  -3.4 6.74e-01 1.91e-01h  1
  42 -1.9007451e-01 1.59e+00 4.64e+02  -6.0 2.13e+00  -3.9 9.45e-04 5.42e-01h  1
  43 -1.9002824e-01 9.29e-01 2.71e+02  -6.0 9.74e-01  -4.4 9.66e-01 4.15e-01h  1
  44 -1.9000669e-01 5.25e-04 1.12e-01  -6.0 9.53e-01  -4.9 1.00e+00 1.00e+00h  1
  45 -1.9006791e-01 8.50e-04 4.27e-01  -6.0 1.92e+00  -5.3 1.00e+00 6.72e-01h  1
  46 -1.9019188e-01 1.05e-03 5.55e-02  -6.0 4.29e+00  -5.8 1.00e+00 1.00e+00f  1
  47 -1.9044369e-01 8.51e-03 2.74e-01  -6.0 1.29e+01  -6.3 1.00e+00 1.00e+00h  1
  48 -1.9071672e-01 1.31e-02 4.98e+00  -6.0 3.82e+01  -6.8 1.00e+00 4.22e-01h  1
  49 -1.9117814e-01 1.01e-01 8.30e+00  -6.0 1.12e+02  -7.2 1.00e+00 2.64e-01f  1
iter    objective    inf_pr   inf_du lg(mu)  ||d||  lg(rg) alpha_du alpha_pr  ls
  50 -1.9293719e-01 6.30e-01 1.26e+01  -6.0 3.24e+02  -7.7 1.00e+00 3.55e-01h  1
  51 -2.0478581e-01 1.22e+01 8.55e+00  -6.0 9.48e+02  -8.2 6.72e-01 9.66e-01h  1
  52 -2.0622515e-01 1.19e+01 8.81e+00  -6.0 2.50e+03  -8.7 1.01e-01 4.44e-02h  1
  53 -2.1122254e-01 6.75e+00 6.66e+00  -6.0 5.91e+02  -8.3 4.43e-01 5.72e-01h  1
  54 -2.1754753e-01 8.35e+00 7.15e+00  -6.0 1.33e+03  -8.7 2.86e-01 3.90e-01h  1
  55 -2.2039759e-01 7.24e+00 1.97e+01  -6.0 2.53e+03  -8.3 2.17e-05 3.86e-01H  1
  56 -2.2350925e-01 8.88e+00 4.09e+04  -6.0 1.87e+03  -8.8 5.09e-01 2.31e-01h  1
  57 -2.2681825e-01 4.95e+00 3.50e+04  -6.0 5.47e+02  -8.4 5.95e-01 1.00e+00h  1
  58 -2.3086967e-01 5.88e+00 2.80e+04  -6.0 1.90e+03  -8.8 1.71e-01 4.59e-01h  1
  59 -2.3166830e-01 5.79e+00 2.52e+04  -6.0 7.68e+03  -9.3 1.08e-01 6.92e-02h  1
iter    objective    inf_pr   inf_du lg(mu)  ||d||  lg(rg) alpha_du alpha_pr  ls
  60 -2.3241240e-01 5.40e+00 1.28e+04  -6.0 1.32e+03  -8.9 5.60e-01 7.78e-02h  1
  61 -2.3241326e-01 5.39e+00 1.56e+04  -6.0 1.84e+02  -7.6 1.32e-01 6.75e-04h  1
  62 -2.3261900e-01 4.86e+00 9.67e+03  -6.0 3.75e+02  -8.0 4.94e-01 9.88e-02h  1
  63 -2.3366276e-01 3.65e+00 4.73e+04  -6.0 3.97e+02  -8.5 2.74e-02 2.78e-01h  1
  64 -2.3505475e-01 3.27e+00 3.95e+04  -6.0 2.71e+03  -9.0 1.49e-01 1.58e-01h  1
  65 -2.3619185e-01 3.12e+00 3.52e+04  -6.0 2.33e+03  -9.5 2.38e-02 1.11e-01h  1
  66 -2.3640403e-01 3.04e+00 3.43e+04  -6.0 1.85e+03  -9.0 1.72e-02 2.55e-02h  1
  67 -2.3686131e-01 2.95e+00 3.32e+04  -6.0 3.75e+03  -9.5 1.29e-03 3.22e-02h  1
  68 -2.3716672e-01 2.61e+00 2.93e+04  -6.0 1.59e+02  -7.3 7.50e-03 1.17e-01h  1
  69 -2.3773085e-01 2.31e+00 2.59e+04  -6.0 3.48e+02  -7.8 1.97e-01 1.17e-01h  1
iter    objective    inf_pr   inf_du lg(mu)  ||d||  lg(rg) alpha_du alpha_pr  ls
  70 -2.3782004e-01 2.28e+00 2.55e+04  -6.0 4.01e+02  -8.2 6.32e-03 1.42e-02h  1
  71 -2.3825887e-01 2.07e+00 2.29e+04  -6.0 5.81e+02  -8.7 3.53e-01 1.00e-01h  1
  72 -2.3879482e-01 1.94e+00 2.09e+04  -6.0 8.98e+02  -9.2 1.21e-03 8.64e-02h  1
  73 -2.3956298e-01 2.19e+00 1.93e+04  -6.0 2.82e+03  -9.7 7.69e-02 7.60e-02h  1
  74 -2.4072995e-01 2.61e+00 3.48e+05  -6.0 8.77e+02  -9.2 7.26e-03 2.31e-01h  1
  75 -2.4130551e-01 2.99e+00 3.24e+05  -6.0 2.30e+03  -9.7 6.10e-02 6.90e-02h  1
  76 -2.4134152e-01 2.78e+00 3.02e+05  -6.0 3.14e+01  -6.6 3.88e-02 6.87e-02h  1
  77 -2.4145423e-01 2.38e+00 2.58e+05  -6.0 2.13e+02  -7.1 1.56e-02 1.44e-01f  1
  78 -2.4146792e-01 2.23e+00 2.42e+05  -6.0 1.07e+02  -6.6 4.17e-03 6.34e-02h  1
  79 -2.4161271e-01 2.00e+00 2.17e+05  -6.0 1.39e+02  -7.1 5.82e-02 1.02e-01h  1
iter    objective    inf_pr   inf_du lg(mu)  ||d||  lg(rg) alpha_du alpha_pr  ls
  80 -2.4169697e-01 1.85e+00 2.00e+05  -6.0 1.17e+02  -7.6 1.21e-01 7.73e-02h  1
  81 -2.4202910e-01 1.38e+00 1.49e+05  -6.0 1.17e+02  -8.1 4.52e-01 2.57e-01h  1
  82 -2.4259569e-01 9.90e-01 1.01e+05  -6.0 2.35e+02  -8.5 5.01e-02 3.22e-01h  1
  83 -2.4264890e-01 8.90e-01 9.08e+04  -6.0 3.34e+01  -6.3 9.29e-02 1.01e-01h  1
  84 -2.4269846e-01 6.38e-01 6.51e+04  -6.0 5.49e+00  -5.9 1.36e-01 2.83e-01h  1
  85 -2.4281578e-01 6.79e-01 4.97e+04  -6.0 2.39e+01  -6.4 1.80e-01 2.36e-01h  1
  86 -2.4289699e-01 7.22e-01 4.78e+04  -6.0 1.25e+02  -6.8 1.45e-01 3.95e-02h  1
  87 -2.4301808e-01 9.05e-01 3.35e+04  -6.0 2.04e+01  -6.4 1.00e+00 2.99e-01h  1
  88 -2.4324697e-01 1.35e+00 2.57e+04  -6.0 5.25e+01  -6.9 4.57e-01 2.34e-01h  1
  89 -2.4325888e-01 1.31e+00 2.50e+04  -6.0 2.63e+01  -7.4 1.00e+00 2.76e-02h  1
iter    objective    inf_pr   inf_du lg(mu)  ||d||  lg(rg) alpha_du alpha_pr  ls
  90 -2.4357035e-01 6.43e-02 2.29e+01  -6.0 4.67e+01  -7.8 1.00e+00 1.00e+00h  1
  91 -2.4402301e-01 3.58e-01 6.75e+00  -6.0 1.51e+02  -8.3 6.37e-01 7.12e-01h  1
  92 -2.4500361e-01 1.22e+00 6.62e+00  -6.0 5.29e+02  -8.8 1.00e+00 1.00e+00h  1
  93 -2.4553914e-01 1.10e+00 4.94e+03  -6.0 2.99e+02  -8.4 9.00e-02 5.08e-01h  1
  94 -2.4563107e-01 7.99e-01 6.55e+04  -6.0 1.50e+02  -7.9 8.31e-02 4.66e-01h  1
  95 -2.4588964e-01 3.65e-01 1.98e+04  -6.0 9.18e+01  -8.4 4.57e-01 6.94e-01h  1
  96 -2.4633970e-01 5.35e-01 1.34e+04  -6.0 4.52e+02  -8.9 2.88e-01 3.25e-01h  1
  97 -2.4686932e-01 1.79e+00 9.49e+03  -6.0 9.67e+02  -9.4 4.95e-01 2.89e-01h  1
  98 -2.4760995e-01 9.00e+00 7.75e+03  -6.0 3.25e+03  -9.9 2.47e-01 1.84e-01h  1
  99 -2.4799854e-01 5.12e+01 4.68e+03  -6.0 3.77e+03  -9.4 3.67e-02 3.97e-01h  1
iter    objective    inf_pr   inf_du lg(mu)  ||d||  lg(rg) alpha_du alpha_pr  ls
 100 -2.4821926e-01 4.32e+01 3.95e+03  -6.0 4.48e+02  -9.0 1.00e+00 1.56e-01h  1
 101 -2.5008131e-01 2.71e+01 2.35e+03  -6.0 2.51e+03  -9.5 4.16e-01 4.07e-01h  1
 102 -2.5123995e-01 2.67e+01 1.44e+03  -6.0 2.66e+03 -10.0 5.22e-02 3.87e-01h  1
 103 -2.5286525e-01 3.08e+01 1.30e+03  -6.0 5.52e+03  -9.5 8.12e-03 9.91e-02h  1
 104 -2.5411273e-01 2.91e+01 1.01e+03  -6.0 2.19e+03 -10.0 3.93e-02 2.27e-01h  1
 105 -2.5420991e-01 2.78e+01 5.26e+03  -6.0 4.35e+03  -9.6 2.37e-02 4.74e-02h  1
 106 -2.5427469e-01 2.77e+01 2.04e+04  -6.0 7.40e+03 -10.1 9.17e-02 2.24e-03h  1
 107 -2.5457856e-01 2.60e+01 1.63e+04  -6.0 1.41e+03  -9.6 3.60e-01 6.87e-02h  1
 108 -2.5570003e-01 2.01e+01 8.50e+04  -6.0 1.07e+04 -10.1 6.37e-02 2.28e-01h  1
 109 -2.5594036e-01 1.99e+01 8.42e+04  -6.0 2.65e+04 -10.6 6.70e-05 9.86e-03h  1
iter    objective    inf_pr   inf_du lg(mu)  ||d||  lg(rg) alpha_du alpha_pr  ls
 110 -2.5607020e-01 1.95e+01 8.24e+04  -6.0 3.03e+04 -11.1 3.71e-03 2.13e-02h  1
 111 -2.5606456e-01 1.95e+01 8.24e+04  -6.0 3.59e+06 -11.5 2.41e-07 1.95e-05h  1
 112 -2.5606443e-01 1.95e+01 8.24e+04  -6.0 1.90e+05 -11.1 1.83e-02 6.96e-06f  2
 113 -2.5733689e-01 1.35e+01 3.74e+04  -6.0 6.68e+03 -10.7 5.41e-02 5.46e-01h  1
 114 -2.5747031e-01 1.13e+01 3.06e+04  -6.0 1.71e+03 -10.3 4.78e-01 1.82e-01h  1
 115 -2.5824442e-01 1.21e+01 2.51e+04  -6.0 1.03e+04 -10.7 1.26e-01 1.80e-01h  1
 116 -2.5860220e-01 1.38e+01 2.44e+04  -6.0 6.75e+04    -  4.70e-02 2.76e-02h  1
 117 -2.5859909e-01 1.33e+01 2.35e+04  -6.0 6.83e+02  -9.4 1.81e-01 3.59e-02h  1
 118 -2.5858997e-01 1.10e+01 1.82e+04  -6.0 6.87e+03    -  7.63e-02 2.25e-01h  1
 119 -2.5848116e-01 9.92e+00 1.63e+04  -6.0 4.67e+02  -9.9 1.91e-01 1.03e-01h  1
iter    objective    inf_pr   inf_du lg(mu)  ||d||  lg(rg) alpha_du alpha_pr  ls
 120 -2.5821532e-01 7.33e+00 1.03e+04  -6.0 3.53e+02  -9.5 1.43e-01 3.68e-01h  1
 121 -2.5819799e-01 7.06e+00 9.95e+03  -6.0 1.05e+02  -6.3 1.47e-02 3.66e-02h  1
 122 -2.5817141e-01 6.78e+00 9.54e+03  -6.0 2.74e+01  -5.9 2.26e-04 4.07e-02h  1
 123 -2.5815769e-01 6.65e+00 9.36e+03  -6.0 2.49e+01  -5.5 5.31e-02 1.94e-02h  1
 124 -2.5815594e-01 6.63e+00 9.33e+03  -6.0 2.09e+01  -5.1 3.11e-02 2.47e-03h  1
 125 -2.5816079e-01 6.60e+00 9.29e+03  -6.0 3.54e+02  -5.5 7.27e-04 4.48e-03h  1
 126 -2.5823812e-01 6.30e+00 8.90e+03  -6.0 2.21e+02  -6.0 1.15e-02 4.25e-02h  1
 127 -2.5872966e-01 1.91e+01 5.86e+03  -6.0 8.18e+01  -6.5 2.01e-01 3.42e-01h  1
 128 -2.5899136e-01 1.16e+01 4.84e+03  -6.0 7.04e+01  -7.0 1.18e-01 1.73e-01h  1
 129 -2.5905127e-01 1.10e+01 4.53e+03  -6.0 5.89e+01  -6.5 1.84e-01 6.37e-02h  1
iter    objective    inf_pr   inf_du lg(mu)  ||d||  lg(rg) alpha_du alpha_pr  ls
 130 -2.5914033e-01 9.73e+00 4.11e+03  -6.0 1.98e+02  -7.0 1.39e-01 9.31e-02h  1
 131 -2.5920599e-01 8.11e+00 3.44e+03  -6.0 4.54e+02  -7.5 3.14e-02 1.64e-01h  1
 132 -2.5958183e-01 6.75e+00 1.42e+03  -6.0 2.30e+02  -7.1 1.91e-01 5.87e-01h  1
 133 -2.5954375e-01 5.54e+00 1.23e+03  -6.0 1.74e+02  -6.6 4.74e-01 1.31e-01h  1
 134 -2.5961238e-01 3.20e+00 8.99e+02  -6.0 2.20e+02  -7.1 5.46e-02 2.71e-01h  1
 135 -2.5959160e-01 2.80e+00 7.91e+02  -6.0 1.14e+02  -5.8 4.39e-02 1.20e-01h  1
 136 -2.5952041e-01 2.57e+00 6.77e+02  -6.0 1.15e+02  -6.3 9.25e-02 1.43e-01h  1
 137 -2.5946213e-01 5.80e+00 6.67e+02  -6.0 7.62e+02  -6.7 5.23e-03 1.47e-02h  1
 138 -2.5948694e-01 6.65e+00 6.30e+02  -6.0 1.70e+02  -7.2 2.08e-02 5.62e-02h  1
 139 -2.5941754e-01 6.09e+00 5.50e+02  -6.0 1.37e+02  -7.7 6.90e-02 1.27e-01h  1
iter    objective    inf_pr   inf_du lg(mu)  ||d||  lg(rg) alpha_du alpha_pr  ls
 140 -2.5941060e-01 5.98e+00 5.39e+02  -6.0 1.89e+02  -8.2 1.26e-01 1.87e-02h  1
 141 -2.5939718e-01 5.73e+00 7.21e+02  -6.0 5.39e+02  -8.6 6.68e-02 4.44e-02h  1
 142 -2.5939828e-01 5.37e+00 8.62e+02  -6.0 1.48e+02  -8.2 6.68e-02 6.19e-02h  1
 143 -2.5946842e-01 4.03e+00 4.21e+02  -6.0 3.91e+02  -8.7 5.91e-02 2.49e-01h  1
 144 -2.5941476e-01 2.42e+00 1.45e+03  -6.0 3.94e+02  -8.3 2.02e-02 4.06e-01h  1
 145 -2.5948499e-01 2.35e+00 1.32e+03  -6.0 3.09e+03    -  4.75e-02 2.72e-02h  1
 146 -2.5948570e-01 2.28e+00 9.32e+02  -6.0 1.57e+03    -  1.21e-01 3.10e-02h  1
 147 -2.5948687e-01 2.21e+00 9.02e+02  -6.0 5.10e+02  -8.7 2.75e-02 2.96e-02h  1
 148 -2.5949750e-01 1.77e+00 9.26e+02  -6.0 1.04e+03  -9.2 3.99e-01 1.92e-01f  1
 149 -2.5954347e-01 1.66e+01 7.02e+03  -6.0 1.71e+02  -7.9 1.11e-01 1.00e+00h  1
iter    objective    inf_pr   inf_du lg(mu)  ||d||  lg(rg) alpha_du alpha_pr  ls
 150 -2.5958390e-01 1.50e+01 8.64e+03  -6.0 8.97e+01  -7.5 3.97e-02 1.59e-01h  1
 151 -2.5961018e-01 1.75e+01 6.93e+03  -6.0 4.81e+03    -  3.67e-01 2.05e-01h  1
 152 -2.5967477e-01 1.67e+01 6.60e+03  -6.0 2.60e+03    -  2.80e-02 4.68e-02h  1
 153 -2.5963638e-01 2.81e+01 2.73e+02  -6.0 3.71e+01  -7.9 2.78e-01 1.00e+00h  1
 154 -2.5967573e-01 2.38e+01 1.40e+02  -6.0 3.69e+01  -7.5 6.61e-01 1.52e-01h  1
 155 -2.5963995e-01 2.62e+00 3.16e+01  -6.0 8.01e+00  -7.1 5.52e-01 9.16e-01h  1
 156 -2.5954691e-01 6.22e+00 2.21e+02  -6.0 2.68e+01  -7.6 3.47e-01 7.43e-01h  1
 157 -2.5956642e-01 6.10e+00 2.19e+02  -6.0 6.68e+03    -  7.14e-04 1.09e-02h  1
 158 -2.5965202e-01 3.10e+00 2.54e+02  -6.0 7.76e+02  -8.1 1.29e-02 9.17e-02f  1
 159 -2.5961628e-01 2.61e+00 2.75e+02  -6.0 1.36e+03    -  2.98e-01 1.64e-01h  1
iter    objective    inf_pr   inf_du lg(mu)  ||d||  lg(rg) alpha_du alpha_pr  ls
 160 -2.5960256e-01 5.23e+00 1.40e+02  -6.0 1.18e+03    -  6.49e-01 4.67e-01h  1
 161 -2.5943796e-01 1.76e+00 1.30e+04  -6.0 2.01e+02  -8.5 2.47e-01 8.03e-01h  1
 162 -2.5941741e-01 1.69e+00 1.75e+04  -6.0 2.52e+02  -8.1 3.07e-01 4.20e-02h  1
 163 -2.5958623e-01 8.81e-01 8.49e+03  -6.0 1.00e+02  -7.7 5.58e-02 5.43e-01h  1
 164 -2.5958641e-01 8.77e-01 1.03e+04  -6.0 9.09e+00  -2.7 7.60e-02 4.50e-03h  1
 165 -2.5960187e-01 5.29e-01 1.50e+04  -6.0 2.32e+00  -3.2 1.00e+00 3.95e-01h  1
 166 -2.5962386e-01 2.35e-01 5.33e+03  -6.0 4.53e+00  -3.7 6.27e-01 5.78e-01h  1
 167 -2.5963120e-01 4.92e-02 8.85e+02  -6.0 1.10e+00  -4.2 8.69e-01 7.95e-01h  1
 168 -2.5963173e-01 3.23e-02 3.37e+02  -6.0 1.86e+00  -4.6 1.00e+00 3.48e-01f  1
 169 -2.5963293e-01 1.99e-03 1.57e+01  -6.0 2.43e-01  -5.1 1.00e+00 9.42e-01f  1
iter    objective    inf_pr   inf_du lg(mu)  ||d||  lg(rg) alpha_du alpha_pr  ls
 170 -2.5963652e-01 2.17e-03 1.76e+02  -6.0 5.71e-01  -5.6 1.00e+00 1.00e+00f  1
 171 -2.5964485e-01 1.15e-02 1.47e+01  -6.0 7.34e-01  -6.1 1.00e+00 1.00e+00h  1
 172 -2.5965778e-01 2.90e-02 8.97e+01  -6.0 2.09e+00  -6.6 1.00e+00 1.00e+00h  1
 173 -2.5966778e-01 2.27e-02 6.74e+01  -6.0 5.91e+00  -7.0 1.00e+00 1.00e+00h  1
 174 -2.5966847e-01 2.94e-02 6.34e+01  -6.0 1.50e+01  -7.5 1.00e+00 1.00e+00h  1
 175 -2.5965703e-01 1.34e-01 3.08e+01  -6.0 3.03e+01  -8.0 1.00e+00 1.00e+00h  1
 176 -2.5962234e-01 1.43e-01 8.35e+00  -6.0 4.19e+01  -8.5 1.00e+00 1.00e+00h  1
 177 -2.5958356e-01 5.54e-02 3.17e+00  -6.0 5.53e+01  -8.9 1.00e+00 1.00e+00h  1
 178 -2.5956858e-01 1.05e-01 1.50e-01  -6.0 7.91e+01  -9.4 1.00e+00 1.00e+00h  1
 179 -2.5956127e-01 7.93e-01 2.90e+01  -6.0 1.07e+03    -  1.00e+00 1.93e-01h  2
iter    objective    inf_pr   inf_du lg(mu)  ||d||  lg(rg) alpha_du alpha_pr  ls
 180 -2.5951702e-01 1.09e+01 9.12e+01  -6.0 8.11e+02    -  1.00e+00 1.00e+00h  1
 181 -2.5951355e-01 7.06e-02 2.01e+00  -6.0 5.56e+01    -  1.00e+00 1.00e+00h  1
 182 -2.5951362e-01 6.88e-05 3.20e-02  -6.0 2.00e+00    -  1.00e+00 1.00e+00h  1
 183 -2.5951361e-01 1.83e-08 4.21e-07  -6.0 3.39e-02    -  1.00e+00 1.00e+00h  1
 184 -2.5980673e-01 1.56e+00 9.68e+01  -7.5 2.57e+03    -  1.79e-01 1.66e-01f  1
 185 -2.5994786e-01 2.12e+00 1.31e+02  -7.5 2.16e+03    -  1.68e-01 9.70e-02h  1
 186 -2.6011768e-01 6.18e+00 8.66e+01  -7.5 3.70e+03    -  8.03e-02 1.39e-01h  1
 187 -2.6025918e-01 5.85e+00 8.43e+01  -7.5 1.60e+03    -  3.17e-01 1.52e-01h  1
 188 -2.6037584e-01 4.87e+00 8.65e+01  -7.5 3.37e+02  -9.9 5.57e-02 1.78e-01h  1
 189 -2.6048662e-01 4.12e+00 8.40e+01  -7.5 9.01e+01  -8.6 6.35e-02 1.56e-01h  1
iter    objective    inf_pr   inf_du lg(mu)  ||d||  lg(rg) alpha_du alpha_pr  ls
 190 -2.6072890e-01 7.72e+00 7.47e+01  -7.5 1.57e+03    -  2.70e-01 3.45e-01h  1
 191 -2.6078295e-01 6.86e+00 8.59e+01  -7.5 8.88e+02    -  1.71e-04 1.44e-01h  1
 192 -2.6111656e-01 7.95e+00 1.97e+02  -7.5 7.79e+02    -  1.10e-01 1.00e+00h  1
 193 -2.6114472e-01 7.58e+00 1.33e+02  -7.5 1.84e+03    -  3.16e-01 4.64e-02h  1
 194 -2.6116212e-01 4.74e+00 1.28e+02  -7.5 2.21e+02    -  5.68e-02 3.75e-01h  1
 195 -2.6118543e-01 3.34e+00 1.57e+02  -7.5 7.86e+02    -  6.17e-01 3.01e-01h  1
 196 -2.6122922e-01 3.78e-01 2.12e+02  -7.5 2.41e+01  -9.0 6.97e-01 1.00e+00h  1
 197 -2.6128779e-01 9.51e-01 7.56e+02  -7.5 3.67e+02  -9.5 3.19e-01 6.01e-01h  1
 198 -2.6129307e-01 9.37e-01 8.26e+02  -7.5 4.38e+02  -9.1 4.35e-01 3.07e-02h  1
 199 -2.6135305e-01 2.08e+00 1.03e+06  -7.5 9.75e+01  -8.7 1.64e-03 9.41e-01h  1
iter    objective    inf_pr   inf_du lg(mu)  ||d||  lg(rg) alpha_du alpha_pr  ls
 200 -2.6137336e-01 2.63e-01 9.59e+02  -7.5 4.23e+00  -6.4 1.99e-01 1.00e+00h  1
 201 -2.6138104e-01 6.73e-02 4.49e-02  -7.5 2.38e+00  -6.9 1.00e+00 1.00e+00h  1
 202 -2.6138969e-01 1.40e-01 5.77e-02  -7.5 8.13e+00  -7.4 1.00e+00 9.85e-01h  1
 203 -2.6140700e-01 4.04e-01 1.75e-01  -7.5 2.92e+01  -7.9 1.00e+00 9.06e-01h  1
 204 -2.6147874e-01 5.77e+00 2.33e+00  -7.5 1.41e+02  -8.3 8.44e-01 7.73e-01h  1
 205 -2.6168454e-01 1.99e+01 7.21e+00  -7.5 6.69e+02  -8.8 1.17e-01 3.85e-01h  1
 206 -2.6169868e-01 1.91e+01 8.39e+00  -7.5 4.21e+01  -7.5 2.55e-02 5.42e-02h  1
 207 -2.6170050e-01 1.79e+01 6.67e+00  -7.5 1.16e+01  -7.1 1.60e-01 6.25e-02h  1
 208 -2.6173728e-01 5.20e+00 1.53e+01  -7.5 2.33e+01  -7.5 2.27e-02 8.09e-01f  1
 209 -2.6175147e-01 4.05e+00 5.84e+00  -7.5 8.58e+00  -7.1 7.31e-01 2.22e-01h  1
iter    objective    inf_pr   inf_du lg(mu)  ||d||  lg(rg) alpha_du alpha_pr  ls
 210 -2.6176489e-01 3.37e+00 1.46e+01  -7.5 2.65e+01  -7.6 5.22e-01 1.76e-01h  1
 211 -2.6188673e-01 3.49e+00 1.41e+01  -7.5 5.00e+04    -  5.13e-03 8.76e-03h  1
 212 -2.6203821e-01 3.94e+00 1.35e+01  -7.5 3.11e+04    -  1.44e-02 1.80e-02h  1
 213 -2.6211453e-01 2.06e+00 3.20e+00  -7.5 8.37e+02    -  2.05e-01 4.63e-01h  1
 214 -2.6214343e-01 1.37e+00 9.51e+00  -7.5 3.15e+02    -  1.57e-01 2.26e-01h  1
 215 -2.6219598e-01 2.07e+00 9.73e+00  -7.5 3.39e+02    -  7.08e-01 6.06e-01h  1
 216 -2.6219649e-01 2.05e+00 9.18e+01  -7.5 4.58e+02    -  3.44e-01 8.66e-03h  1
 217 -2.6220705e-01 1.68e+00 1.82e+02  -7.5 1.79e+02    -  8.49e-01 1.81e-01h  1
 218 -2.6222664e-01 1.15e+00 8.23e+01  -7.5 3.28e+02    -  1.66e-02 3.21e-01h  1
 219 -2.6224947e-01 5.62e-01 1.44e+01  -7.5 1.47e+02    -  4.53e-01 5.17e-01h  1
iter    objective    inf_pr   inf_du lg(mu)  ||d||  lg(rg) alpha_du alpha_pr  ls
 220 -2.6226573e-01 3.44e-01 2.38e+02  -7.5 2.13e+02    -  6.47e-01 3.88e-01h  1
 221 -2.6228696e-01 1.64e+00 2.88e+02  -7.5 7.43e+02    -  7.72e-02 3.91e-01h  1
 222 -2.6230258e-01 1.29e+00 9.81e+02  -7.5 3.24e+02    -  7.23e-01 4.09e-01h  1
 223 -2.6231904e-01 1.08e+00 5.01e+02  -7.5 3.18e+02    -  1.08e-01 2.46e-01h  1
 224 -2.6232247e-01 8.36e-01 5.66e+06  -7.5 8.30e+02    -  2.09e-04 2.42e-01h  2
 225 -2.6238593e-01 9.95e-01 2.08e+03  -7.5 2.24e+02    -  2.47e-01 1.00e+00h  1
 226 -2.6233020e-01 1.37e-01 8.43e+00  -7.5 4.23e+01    -  1.00e+00 1.00e+00h  1
 227 -2.6234283e-01 1.40e-01 5.50e+00  -7.5 1.04e+02    -  3.34e-01 3.46e-01h  1
 228 -2.6233237e-01 2.86e-02 3.35e-02  -7.5 2.98e+01    -  1.00e+00 1.00e+00h  1
 229 -2.6234597e-01 6.58e-02 1.02e-01  -7.5 6.44e+01    -  6.57e-01 6.11e-01h  1
iter    objective    inf_pr   inf_du lg(mu)  ||d||  lg(rg) alpha_du alpha_pr  ls
 230 -2.6235283e-01 4.99e-02 1.13e-01  -7.5 5.28e+01    -  1.00e+00 1.00e+00h  1
 231 -2.6235825e-01 9.01e-02 1.76e+00  -7.5 7.08e+01    -  5.32e-01 1.00e+00h  1
 232 -2.6236457e-01 1.25e-01 4.69e+00  -7.5 8.33e+01    -  7.20e-01 1.00e+00h  1
 233 -2.6236705e-01 1.03e-01 2.77e+01  -7.5 9.47e+01    -  7.61e-01 2.72e-01h  1
 234 -2.6237606e-01 1.51e-01 1.93e+01  -7.5 9.13e+01    -  6.50e-01 1.00e+00h  1
 235 -2.6237986e-01 1.22e-01 1.62e+02  -7.5 1.01e+02    -  9.16e-01 3.15e-01h  1
 236 -2.6239250e-01 2.04e-01 1.35e+02  -7.5 1.06e+02    -  4.87e-01 1.00e+00h  1
 237 -2.6239708e-01 1.86e-01 4.98e+02  -7.5 1.72e+02    -  6.53e-01 2.36e-01h  1
 238 -2.6240269e-01 2.71e-01 6.66e+05  -7.5 6.07e+01    -  2.16e-03 1.00e+00f  1
 239 -2.6240416e-01 5.33e-02 2.51e+02  -7.5 5.19e+01    -  7.14e-01 1.00e+00h  1
iter    objective    inf_pr   inf_du lg(mu)  ||d||  lg(rg) alpha_du alpha_pr  ls
 240 -2.6240086e-01 8.12e-02 3.35e-01  -7.5 3.12e+01    -  1.00e+00 1.00e+00H  1
 241 -2.6240089e-01 1.21e-04 3.96e-05  -7.5 2.45e+00    -  1.00e+00 1.00e+00h  1
 242 -2.6240089e-01 1.19e-06 3.76e-09  -7.5 1.42e-01    -  1.00e+00 1.00e+00h  1
 243 -2.6240089e-01 4.24e-10 4.92e-13  -7.5 4.21e-04    -  1.00e+00 1.00e+00h  1
 244 -2.6241247e-01 6.66e-02 2.96e+00  -9.0 3.95e+02    -  5.89e-01 2.65e-01h  1
 245 -2.6241643e-01 1.40e-01 4.87e+00  -9.0 2.83e+02    -  8.16e-01 1.70e-01h  1
 246 -2.6241857e-01 1.29e+00 1.51e+00  -9.0 2.10e+02    -  5.40e-01 6.67e-01h  1
 247 -2.6241859e-01 4.77e-01 6.39e-01  -9.0 6.40e+01    -  5.42e-01 5.70e-01h  1
 248 -2.6241851e-01 4.10e-02 1.54e-03  -9.0 2.72e+01    -  1.00e+00 1.00e+00h  1
 249 -2.6241849e-01 1.99e-05 1.55e-07  -9.0 6.51e-01    -  1.00e+00 1.00e+00h  1
iter    objective    inf_pr   inf_du lg(mu)  ||d||  lg(rg) alpha_du alpha_pr  ls
 250 -2.6241849e-01 2.83e-10 4.81e-13  -9.0 1.85e-04    -  1.00e+00 1.00e+00h  1

Number of Iterations....: 250

                                   (scaled)                 (unscaled)
Objective...............:  -2.6241849356808306e-01   -2.6241849356808306e-01
Dual infeasibility......:   4.8089310311638656e-13    4.8089310311638656e-13
Constraint violation....:   2.8335490323463247e-10    2.8335490323463247e-10
Complementarity.........:   9.1295332680094979e-10    9.1295332680094979e-10
Overall NLP error.......:   9.1295332680094979e-10    9.1295332680094979e-10


Number of objective function evaluations             = 290
Number of objective gradient evaluations             = 251
Number of equality constraint evaluations            = 290
Number of inequality constraint evaluations          = 291
Number of equality constraint Jacobian evaluations   = 252
Number of inequality constraint Jacobian evaluations = 252
Number of Lagrangian Hessian evaluations             = 250
Total CPU secs in IPOPT (w/o function evaluations)   =    308.465
Total CPU secs in NLP function evaluations           =      7.808

EXIT: Optimal Solution Found.
